(declare-fun temp3065_1 () (_ BitVec 64))
(declare-fun var527257 () (_ BitVec 64))
(declare-fun var527256 () (_ BitVec 64))
(declare-fun var134691 () (_ BitVec 64))
(declare-fun var594101 () (_ BitVec 64))
(declare-fun var659958 () (_ BitVec 64))
(declare-fun temp3065_2 () (_ BitVec 64))
(declare-fun var2756219 () (_ BitVec 64))
(declare-fun var2756224 () (_ BitVec 64))
(declare-fun var2885852 () (_ BitVec 64))
(declare-fun temp3065_3 () (_ BitVec 64))
(declare-fun var3280507 () (_ BitVec 64))
(declare-fun var3280512 () (_ BitVec 64))
(declare-fun var3410140 () (_ BitVec 64))
(declare-fun temp3065_5 () (_ BitVec 64))
(declare-fun temp3065_4 () (_ BitVec 64))
(declare-fun temp3065_7 () (_ BitVec 64))
(declare-fun temp3065_6 () (_ BitVec 64))
(declare-fun temp3065_9 () (_ BitVec 64))
(declare-fun temp3065_8 () (_ BitVec 64))
(declare-fun temp3065_11 () (_ BitVec 64))
(declare-fun temp3065_10 () (_ BitVec 64))
(declare-fun temp3065_13 () (_ BitVec 64))
(declare-fun temp3065_12 () (_ BitVec 64))
(declare-fun temp3065_15 () (_ BitVec 64))
(declare-fun temp3065_14 () (_ BitVec 64))
(declare-fun temp3065_17 () (_ BitVec 64))
(declare-fun temp3065_16 () (_ BitVec 64))
(declare-fun temp3065_19 () (_ BitVec 64))
(declare-fun temp3065_18 () (_ BitVec 64))
(declare-fun temp3065_21 () (_ BitVec 64))
(declare-fun temp3065_20 () (_ BitVec 64))
(declare-fun temp3065_23 () (_ BitVec 64))
(declare-fun temp3065_22 () (_ BitVec 64))
(declare-fun temp3065_25 () (_ BitVec 64))
(declare-fun temp3065_24 () (_ BitVec 64))
(declare-fun temp3065_27 () (_ BitVec 64))
(declare-fun temp3065_26 () (_ BitVec 64))
(declare-fun temp3065_29 () (_ BitVec 64))
(declare-fun temp3065_28 () (_ BitVec 64))
(declare-fun temp3065_31 () (_ BitVec 64))
(declare-fun temp3065_30 () (_ BitVec 64))
(declare-fun temp3065_33 () (_ BitVec 64))
(declare-fun temp3065_32 () (_ BitVec 64))
(declare-fun temp3065_35 () (_ BitVec 64))
(declare-fun temp3065_34 () (_ BitVec 64))
(declare-fun temp3065_37 () (_ BitVec 64))
(declare-fun temp3065_36 () (_ BitVec 64))
(declare-fun temp3065_39 () (_ BitVec 64))
(declare-fun temp3065_38 () (_ BitVec 64))
(declare-fun temp3065_41 () (_ BitVec 64))
(declare-fun temp3065_40 () (_ BitVec 64))
(declare-fun temp3065_43 () (_ BitVec 64))
(declare-fun temp3065_42 () (_ BitVec 64))
(declare-fun temp3065_45 () (_ BitVec 64))
(declare-fun temp3065_44 () (_ BitVec 64))
(declare-fun temp3065_47 () (_ BitVec 64))
(declare-fun temp3065_46 () (_ BitVec 64))
(declare-fun temp3065_49 () (_ BitVec 64))
(declare-fun temp3065_48 () (_ BitVec 64))
(declare-fun temp3065_51 () (_ BitVec 64))
(declare-fun temp3065_50 () (_ BitVec 64))
(assert (= temp3065_1 #x0000000000000007))
(assert (= var527257 temp3065_1))
(assert (= var527256 var527257))
(assert (= var134691 var527256))
(assert (= var594101 var134691))
(assert (= var659958 var594101))
(assert (= temp3065_2 #x0000000000000000))
(assert (= var2756219 temp3065_2))
(assert (= var2756224 var2756219))
(assert (= var2885852 var2756224))
(assert (= temp3065_3 #x0000000000000000))
(assert (= var3280507 temp3065_3))
(assert (= var3280512 var3280507))
(assert (= var3410140 var3280512))
(assert (= temp3065_5 #x0000000000000000))
(assert (= temp3065_4 temp3065_5))
(assert (= temp3065_7 #x0000000000000000))
(assert (= temp3065_6 temp3065_7))
(assert (= temp3065_9 #x0000000000000000))
(assert (= temp3065_8 temp3065_9))
(assert (= temp3065_11 #x0000000000000000))
(assert (= temp3065_10 temp3065_11))
(assert (= temp3065_13 #x0000000000000000))
(assert (= temp3065_12 temp3065_13))
(assert (= temp3065_15 #x0000000000000000))
(assert (= temp3065_14 temp3065_15))
(assert (= temp3065_17 #x0000000000000000))
(assert (= temp3065_16 temp3065_17))
(assert (= temp3065_19 #x0000000000000000))
(assert (= temp3065_18 temp3065_19))
(assert (= temp3065_21 #x0000000000000000))
(assert (= temp3065_20 temp3065_21))
(assert (= temp3065_23 #x0000000000000000))
(assert (= temp3065_22 temp3065_23))
(assert (= temp3065_25 #x0000000000000000))
(assert (= temp3065_24 temp3065_25))
(assert (= temp3065_27 #x0000000000000000))
(assert (= temp3065_26 temp3065_27))
(assert (= temp3065_29 #x0000000000000000))
(assert (= temp3065_28 temp3065_29))
(assert (= temp3065_31 #x0000000000000000))
(assert (= temp3065_30 temp3065_31))
(assert (= temp3065_33 #x0000000000000000))
(assert (= temp3065_32 temp3065_33))
(assert (= temp3065_35 #x0000000000000000))
(assert (= temp3065_34 temp3065_35))
(assert (= temp3065_37 #x0000000000000000))
(assert (= temp3065_36 temp3065_37))
(assert (= temp3065_39 #x0000000000000000))
(assert (= temp3065_38 temp3065_39))
(assert (= temp3065_41 #x0000000000000000))
(assert (= temp3065_40 temp3065_41))
(assert (= temp3065_43 #x0000000000000000))
(assert (= temp3065_42 temp3065_43))
(assert (= temp3065_45 #x0000000000000000))
(assert (= temp3065_44 temp3065_45))
(assert (= temp3065_47 #x0000000000000000))
(assert (= temp3065_46 temp3065_47))
(assert (= temp3065_49 #x0000000000000000))
(assert (= temp3065_48 temp3065_49))
(assert (= temp3065_51 #x0000000000000000))
(assert (= temp3065_50 temp3065_51))
(model-add temp3065_1 () (_ BitVec 64) #x0000000000000007)
(model-add var527257 () (_ BitVec 64) #x0000000000000007)
(model-add var527256 () (_ BitVec 64) #x0000000000000007)
(model-add var134691 () (_ BitVec 64) #x0000000000000007)
(model-add var594101 () (_ BitVec 64) #x0000000000000007)
(model-add var659958 () (_ BitVec 64) #x0000000000000007)
(model-add temp3065_2 () (_ BitVec 64) #x0000000000000000)
(model-add var2756219 () (_ BitVec 64) #x0000000000000000)
(model-add var2756224 () (_ BitVec 64) #x0000000000000000)
(model-add var2885852 () (_ BitVec 64) #x0000000000000000)
(model-add temp3065_3 () (_ BitVec 64) #x0000000000000000)
(model-add var3280507 () (_ BitVec 64) #x0000000000000000)
(model-add var3280512 () (_ BitVec 64) #x0000000000000000)
(model-add var3410140 () (_ BitVec 64) #x0000000000000000)
(model-add temp3065_5 () (_ BitVec 64) #x0000000000000000)
(model-add temp3065_4 () (_ BitVec 64) #x0000000000000000)
(model-add temp3065_7 () (_ BitVec 64) #x0000000000000000)
(model-add temp3065_6 () (_ BitVec 64) #x0000000000000000)
(model-add temp3065_9 () (_ BitVec 64) #x0000000000000000)
(model-add temp3065_8 () (_ BitVec 64) #x0000000000000000)
(model-add temp3065_11 () (_ BitVec 64) #x0000000000000000)
(model-add temp3065_10 () (_ BitVec 64) #x0000000000000000)
(model-add temp3065_13 () (_ BitVec 64) #x0000000000000000)
(model-add temp3065_12 () (_ BitVec 64) #x0000000000000000)
(model-add temp3065_15 () (_ BitVec 64) #x0000000000000000)
(model-add temp3065_14 () (_ BitVec 64) #x0000000000000000)
(model-add temp3065_17 () (_ BitVec 64) #x0000000000000000)
(model-add temp3065_16 () (_ BitVec 64) #x0000000000000000)
(model-add temp3065_19 () (_ BitVec 64) #x0000000000000000)
(model-add temp3065_18 () (_ BitVec 64) #x0000000000000000)
(model-add temp3065_21 () (_ BitVec 64) #x0000000000000000)
(model-add temp3065_20 () (_ BitVec 64) #x0000000000000000)
(model-add temp3065_23 () (_ BitVec 64) #x0000000000000000)
(model-add temp3065_22 () (_ BitVec 64) #x0000000000000000)
(model-add temp3065_25 () (_ BitVec 64) #x0000000000000000)
(model-add temp3065_24 () (_ BitVec 64) #x0000000000000000)
(model-add temp3065_27 () (_ BitVec 64) #x0000000000000000)
(model-add temp3065_26 () (_ BitVec 64) #x0000000000000000)
(model-add temp3065_29 () (_ BitVec 64) #x0000000000000000)
(model-add temp3065_28 () (_ BitVec 64) #x0000000000000000)
(model-add temp3065_31 () (_ BitVec 64) #x0000000000000000)
(model-add temp3065_30 () (_ BitVec 64) #x0000000000000000)
(model-add temp3065_33 () (_ BitVec 64) #x0000000000000000)
(model-add temp3065_32 () (_ BitVec 64) #x0000000000000000)
(model-add temp3065_35 () (_ BitVec 64) #x0000000000000000)
(model-add temp3065_34 () (_ BitVec 64) #x0000000000000000)
(model-add temp3065_37 () (_ BitVec 64) #x0000000000000000)
(model-add temp3065_36 () (_ BitVec 64) #x0000000000000000)
(model-add temp3065_39 () (_ BitVec 64) #x0000000000000000)
(model-add temp3065_38 () (_ BitVec 64) #x0000000000000000)
(model-add temp3065_41 () (_ BitVec 64) #x0000000000000000)
(model-add temp3065_40 () (_ BitVec 64) #x0000000000000000)
(model-add temp3065_43 () (_ BitVec 64) #x0000000000000000)
(model-add temp3065_42 () (_ BitVec 64) #x0000000000000000)
(model-add temp3065_45 () (_ BitVec 64) #x0000000000000000)
(model-add temp3065_44 () (_ BitVec 64) #x0000000000000000)
(model-add temp3065_47 () (_ BitVec 64) #x0000000000000000)
(model-add temp3065_46 () (_ BitVec 64) #x0000000000000000)
(model-add temp3065_49 () (_ BitVec 64) #x0000000000000000)
(model-add temp3065_48 () (_ BitVec 64) #x0000000000000000)
(model-add temp3065_51 () (_ BitVec 64) #x0000000000000000)
(model-add temp3065_50 () (_ BitVec 64) #x0000000000000000)

